c Reduced graph for GEOM20b generated by Cyril Grelier
p edge 18 30
e 1 8
e 1 9
e 1 13
e 1 14
e 1 16
e 1 18
e 2 13
e 2 14
e 2 15
e 2 17
e 3 6
e 3 8
e 3 10
e 4 11
e 4 16
e 5 12
e 5 15
e 6 10
e 7 17
e 8 13
e 8 16
e 9 12
e 9 18
e 11 16
e 12 14
e 12 15
e 12 18
e 13 14
e 13 17
e 14 15
